c File:  fpsol2.i.1.col
c
c SOURCE: Gary Lewandowski (gary@cs.wisc.edu)
c
c DESCRIPTION: Coloring problem generated from a register allocation
c              problem based on real code.
c
c graph #1 from register allocation file -
p edge 6 4
e 1 2
e 1 4
e 2 3
e 2 5
